letting input=[4,1,4,1,17,17,8,29,22,5,14,30,22,19,16]
letting output=[31,47,74,14,89,54,80,16,9,6,20,15,51,9,81,39,63,43,27,8,56,71,11,46,14,90,38,63,73,89,60,79,55,12,14,36,42,82,6,42,60,69,43,69,49]
letting MAX_OPS=999
letting num_registers=1
